NAME: clu_20_1
TYPE: TSP
DIMENSION: 20
EDGE_WEIGHT_TYPE: EUC_2D
NODE_COORD_SECTION
1 17 94
2 36 5
3 80 37
4 67 48
5 3 94
6 1 96
7 37 81
8 -8 100
9 13 87
10 17 7
11 4 94
12 10 103
13 71 26
14 39 7
15 61 18
16 -12 80
17 22 15
18 33 80
19 4 90
20 72 16
EOF
